decision_x1=[0,7];
decision_x2=[0,7];
decision_x3=[0,7];
decision_x4=[0,7];
decision_x5=[0,7];
decision_x6=[0,7];
decision_x7=[0,7];
decision_x8=[0,7];
decision_x9=[0,7];
decision_x10=[0,7];
decision_x11=[0,7];
decision_x12=[0,7];
decision_x13=[0,7];
decision_x14=[0,7];
random_y1=[0,7];
random_y2=[0,7];
random_y3=[0,7];
random_y4=[0,7];
random_y5=[0,7];
random_y6=[0,7];
constraint_x2_x1=[
0,0,1.3|
0,1,9.2|
0,2,2.3|
0,3,1|
0,4,1.9|
0,5,3.7|
0,6,4.1|
0,7,6.9|
1,0,5.5|
1,1,2.5|
1,2,9.7|
1,3,3.9|
1,4,3.1|
1,5,6.7|
1,6,5.1|
1,7,1.5|
2,0,9.8|
2,1,10|
2,2,3.6|
2,3,6.1|
2,4,9.1|
2,5,8.4|
2,6,9.5|
2,7,3.6|
3,0,2|
3,1,2.1|
3,2,3|
3,3,3|
3,4,1.4|
3,5,9.6|
3,6,8.2|
3,7,6|
4,0,2.1|
4,1,6.5|
4,2,9.8|
4,3,8.1|
4,4,6.8|
4,5,4.3|
4,6,7.5|
4,7,7.2|
5,0,7.7|
5,1,6.3|
5,2,9.4|
5,3,1.5|
5,4,8.7|
5,5,2.4|
5,6,6.7|
5,7,5.8|
6,0,8.7|
6,1,0.18|
6,2,3.6|
6,3,0.54|
6,4,10|
6,5,4.2|
6,6,4.8|
6,7,8.6|
7,0,0.35|
7,1,0.93|
7,2,2.1|
7,3,9.9|
7,4,6.5|
7,5,5.6|
7,6,1.2|
7,7,6|
];
constraint_x3_x2=[
0,0,5.8|
0,1,4.4|
0,2,5|
0,3,9|
0,4,9.7|
0,5,1.4|
0,6,0.3|
0,7,5.4|
1,0,1.2|
1,1,9.9|
1,2,3.3|
1,3,7.3|
1,4,0.014|
1,5,0.047|
1,6,8.5|
1,7,6|
2,0,6.4|
2,1,6.7|
2,2,10|
2,3,0.18|
2,4,6.7|
2,5,8.3|
2,6,2.6|
2,7,2.2|
3,0,2.8|
3,1,6.9|
3,2,6.1|
3,3,7.3|
3,4,4.9|
3,5,9.1|
3,6,3.6|
3,7,6.7|
4,0,2.5|
4,1,3.6|
4,2,2.6|
4,3,4.9|
4,4,4.6|
4,5,0.69|
4,6,8.2|
4,7,8.6|
5,0,6|
5,1,3|
5,2,0.23|
5,3,6.7|
5,4,2.6|
5,5,3.8|
5,6,7.5|
5,7,7.4|
6,0,1|
6,1,7.3|
6,2,1.9|
6,3,3.4|
6,4,7|
6,5,1.9|
6,6,8.6|
6,7,8.4|
7,0,9.2|
7,1,4.1|
7,2,4|
7,3,3.7|
7,4,1.4|
7,5,3.3|
7,6,7.5|
7,7,1.2|
];
constraint_x4_x3=[
0,0,6.8|
0,1,2.2|
0,2,4.4|
0,3,4.4|
0,4,0.072|
0,5,6.3|
0,6,1.7|
0,7,6.4|
1,0,6.2|
1,1,4.6|
1,2,2.7|
1,3,4.8|
1,4,2.6|
1,5,5.9|
1,6,4.1|
1,7,0.29|
2,0,8.9|
2,1,7.2|
2,2,0.65|
2,3,1.5|
2,4,8.4|
2,5,5.8|
2,6,4.5|
2,7,2.1|
3,0,0.15|
3,1,5.9|
3,2,0.56|
3,3,5|
3,4,5.8|
3,5,7.8|
3,6,7.4|
3,7,9.1|
4,0,4.4|
4,1,7|
4,2,3.6|
4,3,9|
4,4,9.4|
4,5,7.8|
4,6,8.8|
4,7,6.2|
5,0,2.4|
5,1,6.8|
5,2,9.5|
5,3,1.9|
5,4,1.3|
5,5,6.7|
5,6,1.5|
5,7,3|
6,0,4.6|
6,1,7.9|
6,2,6.3|
6,3,0.6|
6,4,2.8|
6,5,3.2|
6,6,2.4|
6,7,8.9|
7,0,4.2|
7,1,9.3|
7,2,9.6|
7,3,1.5|
7,4,5.6|
7,5,6|
7,6,4.9|
7,7,3.2|
];
constraint_x5_x1=[
0,0,0.63|
0,1,5.1|
0,2,0.15|
0,3,9.3|
0,4,8.6|
0,5,8.1|
0,6,7.2|
0,7,0.64|
1,0,4.6|
1,1,1.6|
1,2,2.8|
1,3,9.5|
1,4,3.5|
1,5,1.4|
1,6,4.3|
1,7,5.3|
2,0,9.3|
2,1,8.9|
2,2,6.1|
2,3,4.4|
2,4,6.1|
2,5,2.1|
2,6,7.7|
2,7,3|
3,0,6.7|
3,1,4.2|
3,2,7.8|
3,3,2|
3,4,7.3|
3,5,7.2|
3,6,0.62|
3,7,5|
4,0,3.9|
4,1,7.2|
4,2,7.1|
4,3,6.1|
4,4,5.7|
4,5,2.8|
4,6,4.2|
4,7,2.4|
5,0,2.1|
5,1,0.23|
5,2,3.3|
5,3,8.6|
5,4,4.9|
5,5,0.35|
5,6,1.8|
5,7,4.8|
6,0,8|
6,1,6.3|
6,2,6.6|
6,3,1.9|
6,4,4.3|
6,5,0.42|
6,6,3.5|
6,7,2.4|
7,0,2.3|
7,1,9.6|
7,2,3|
7,3,4.1|
7,4,2.7|
7,5,5|
7,6,3.2|
7,7,7.5|
];
constraint_x6_x2=[
0,0,8.6|
0,1,6|
0,2,2.9|
0,3,7.2|
0,4,4.1|
0,5,7.2|
0,6,1.1|
0,7,5.8|
1,0,5.1|
1,1,5.7|
1,2,2|
1,3,4.9|
1,4,4.1|
1,5,3.3|
1,6,0.77|
1,7,1.5|
2,0,0.86|
2,1,2.6|
2,2,1.6|
2,3,4.4|
2,4,6.2|
2,5,0.073|
2,6,4.1|
2,7,3.4|
3,0,8.5|
3,1,5.4|
3,2,9.8|
3,3,1.9|
3,4,0.94|
3,5,6.3|
3,6,9.8|
3,7,0.93|
4,0,0.87|
4,1,2.9|
4,2,2|
4,3,8.1|
4,4,2.1|
4,5,8.4|
4,6,9.4|
4,7,9.8|
5,0,4.7|
5,1,9.3|
5,2,1.2|
5,3,4.1|
5,4,6.5|
5,5,8.5|
5,6,5.2|
5,7,5.6|
6,0,8.7|
6,1,5.6|
6,2,5.9|
6,3,3.8|
6,4,8.1|
6,5,4|
6,6,1.7|
6,7,5.4|
7,0,5.8|
7,1,8.7|
7,2,9.4|
7,3,1.8|
7,4,9.9|
7,5,8.9|
7,6,3.3|
7,7,3.9|
];
constraint_x7_x3=[
0,0,0.22|
0,1,8.6|
0,2,6.9|
0,3,8|
0,4,5.1|
0,5,9.1|
0,6,0.93|
0,7,8|
1,0,5.8|
1,1,0.36|
1,2,5|
1,3,7.4|
1,4,3.6|
1,5,0.75|
1,6,2.4|
1,7,3.8|
2,0,1.1|
2,1,2.7|
2,2,7.4|
2,3,1.2|
2,4,0.094|
2,5,9.1|
2,6,7.6|
2,7,8.1|
3,0,2.1|
3,1,8.5|
3,2,8.9|
3,3,6.7|
3,4,2.3|
3,5,7.4|
3,6,2|
3,7,9.1|
4,0,1.2|
4,1,1.5|
4,2,6.5|
4,3,0.73|
4,4,5.1|
4,5,9.9|
4,6,8.9|
4,7,2.6|
5,0,4.3|
5,1,2.3|
5,2,9.4|
5,3,6.1|
5,4,5.7|
5,5,2.8|
5,6,9|
5,7,6.5|
6,0,9.9|
6,1,6.3|
6,2,0.47|
6,3,7.8|
6,4,5.8|
6,5,1.1|
6,6,7.5|
6,7,5|
7,0,8.1|
7,1,8.4|
7,2,1.6|
7,3,1.5|
7,4,3.3|
7,5,8.6|
7,6,8.5|
7,7,7.1|
];
constraint_x8_x4=[
0,0,2.1|
0,1,4.3|
0,2,4.8|
0,3,2.5|
0,4,2.7|
0,5,7.7|
0,6,7.1|
0,7,3.4|
1,0,6.9|
1,1,0.75|
1,2,0.91|
1,3,4.8|
1,4,5.9|
1,5,0.24|
1,6,8|
1,7,1.3|
2,0,3.3|
2,1,9.2|
2,2,4.2|
2,3,7.9|
2,4,7.9|
2,5,7.3|
2,6,5|
2,7,5|
3,0,4|
3,1,2.4|
3,2,0.52|
3,3,5.9|
3,4,8.9|
3,5,0.66|
3,6,9.1|
3,7,5.6|
4,0,9.4|
4,1,6.9|
4,2,1.4|
4,3,4.8|
4,4,9.6|
4,5,8.7|
4,6,0.13|
4,7,7.6|
5,0,7.4|
5,1,2.9|
5,2,0.75|
5,3,5.1|
5,4,8.3|
5,5,0.96|
5,6,4.9|
5,7,5.2|
6,0,4.7|
6,1,8.5|
6,2,8.4|
6,3,4.1|
6,4,7.5|
6,5,7.3|
6,6,5.1|
6,7,2.4|
7,0,2.8|
7,1,5.4|
7,2,0.028|
7,3,4.6|
7,4,2.6|
7,5,2.9|
7,6,8.6|
7,7,1|
];
constraint_x9_x5=[
0,0,2.9|
0,1,8.5|
0,2,3.1|
0,3,4.1|
0,4,3.7|
0,5,8.1|
0,6,8.5|
0,7,6.5|
1,0,2.8|
1,1,1.3|
1,2,6|
1,3,4.1|
1,4,2.7|
1,5,6.9|
1,6,8.3|
1,7,7.6|
2,0,8.6|
2,1,5.1|
2,2,9.2|
2,3,6.5|
2,4,5.7|
2,5,7.3|
2,6,5.4|
2,7,3.7|
3,0,7.4|
3,1,5.6|
3,2,4.3|
3,3,3.8|
3,4,0.69|
3,5,9.1|
3,6,8|
3,7,8.4|
4,0,7|
4,1,1.1|
4,2,8.3|
4,3,6.3|
4,4,5.2|
4,5,6.2|
4,6,8.4|
4,7,3.9|
5,0,2.3|
5,1,1.6|
5,2,9.3|
5,3,5.8|
5,4,9|
5,5,9.3|
5,6,5.5|
5,7,1.8|
6,0,7.2|
6,1,0.056|
6,2,2.4|
6,3,6.3|
6,4,0.21|
6,5,0.34|
6,6,9.2|
6,7,8.5|
7,0,6.4|
7,1,2.4|
7,2,2.7|
7,3,6.6|
7,4,9.3|
7,5,1.4|
7,6,9.1|
7,7,3.4|
];
constraint_x10_x6=[
0,0,3.8|
0,1,7.1|
0,2,5.8|
0,3,1.6|
0,4,2.7|
0,5,5.2|
0,6,8.3|
0,7,6.2|
1,0,8.8|
1,1,9|
1,2,7.3|
1,3,9.8|
1,4,0.75|
1,5,9.7|
1,6,1.5|
1,7,4.4|
2,0,9.7|
2,1,8.7|
2,2,1.2|
2,3,3.5|
2,4,5.7|
2,5,7.9|
2,6,8.7|
2,7,5.1|
3,0,4.5|
3,1,1.9|
3,2,5.1|
3,3,9.4|
3,4,6.6|
3,5,4|
3,6,6|
3,7,0.025|
4,0,9.4|
4,1,7.1|
4,2,5.3|
4,3,1|
4,4,7|
4,5,8.5|
4,6,9.3|
4,7,8.4|
5,0,8.3|
5,1,6.7|
5,2,9.5|
5,3,9.4|
5,4,7|
5,5,9.4|
5,6,5.9|
5,7,8.6|
6,0,6.5|
6,1,8.9|
6,2,3.8|
6,3,8.6|
6,4,7.1|
6,5,5.2|
6,6,2.1|
6,7,8.4|
7,0,0.99|
7,1,7.9|
7,2,7.8|
7,3,8.4|
7,4,0.28|
7,5,5.2|
7,6,9.6|
7,7,5|
];
constraint_x11_x7=[
0,0,8.4|
0,1,0.88|
0,2,6.7|
0,3,6.7|
0,4,0.92|
0,5,8|
0,6,6.5|
0,7,9.1|
1,0,1.5|
1,1,3.8|
1,2,6.1|
1,3,1.2|
1,4,7.1|
1,5,6.3|
1,6,9.4|
1,7,9.9|
2,0,9.8|
2,1,4.5|
2,2,0.95|
2,3,1.3|
2,4,7.3|
2,5,9.6|
2,6,2.3|
2,7,1.2|
3,0,9.3|
3,1,4.7|
3,2,0.49|
3,3,0.071|
3,4,9.1|
3,5,4.5|
3,6,5|
3,7,5.4|
4,0,6.6|
4,1,2.4|
4,2,7|
4,3,4.3|
4,4,7.2|
4,5,1.4|
4,6,3.9|
4,7,9.9|
5,0,2.8|
5,1,7.7|
5,2,5.2|
5,3,8.4|
5,4,3.7|
5,5,0.58|
5,6,8.6|
5,7,2.1|
6,0,1.6|
6,1,1.1|
6,2,6.3|
6,3,4.7|
6,4,8.9|
6,5,1.5|
6,6,6.3|
6,7,0.68|
7,0,9.9|
7,1,6.4|
7,2,4.8|
7,3,3.4|
7,4,8.9|
7,5,2.7|
7,6,6.1|
7,7,4.4|
];
constraint_x12_x8=[
0,0,5.4|
0,1,2.1|
0,2,2.7|
0,3,1|
0,4,0.056|
0,5,4.1|
0,6,5.2|
0,7,0.34|
1,0,0.76|
1,1,5.8|
1,2,7.4|
1,3,2.4|
1,4,8.2|
1,5,9.5|
1,6,2|
1,7,6.9|
2,0,6.6|
2,1,9.1|
2,2,7.2|
2,3,5.1|
2,4,1.1|
2,5,4.9|
2,6,5.1|
2,7,0.41|
3,0,7.1|
3,1,5.4|
3,2,4.2|
3,3,4.7|
3,4,6.8|
3,5,8.5|
3,6,3.1|
3,7,5|
4,0,7.4|
4,1,5.5|
4,2,1.4|
4,3,3|
4,4,4|
4,5,1.5|
4,6,8.8|
4,7,6|
5,0,1.5|
5,1,6.8|
5,2,1.6|
5,3,0.65|
5,4,6.5|
5,5,6.6|
5,6,0.14|
5,7,0.42|
6,0,5.5|
6,1,9.6|
6,2,6.5|
6,3,7.9|
6,4,6.4|
6,5,5|
6,6,3.4|
6,7,6.6|
7,0,1|
7,1,7.1|
7,2,5.8|
7,3,9.3|
7,4,4.5|
7,5,0.22|
7,6,4|
7,7,6.5|
];
constraint_x13_x9=[
0,0,6.7|
0,1,9.6|
0,2,9.6|
0,3,8.5|
0,4,10|
0,5,3.8|
0,6,3.2|
0,7,3.4|
1,0,9.2|
1,1,9.4|
1,2,8|
1,3,5.5|
1,4,4.4|
1,5,7.2|
1,6,8.7|
1,7,3.4|
2,0,2.8|
2,1,8.2|
2,2,3.4|
2,3,5|
2,4,9.3|
2,5,3.5|
2,6,6.2|
2,7,1.5|
3,0,9.2|
3,1,2.1|
3,2,9.5|
3,3,8.8|
3,4,9.7|
3,5,3.9|
3,6,8.7|
3,7,9.9|
4,0,9.6|
4,1,7.7|
4,2,4.8|
4,3,0.047|
4,4,8.4|
4,5,9.2|
4,6,4.2|
4,7,0.96|
5,0,3.7|
5,1,2.1|
5,2,8.8|
5,3,7.3|
5,4,9.6|
5,5,8.3|
5,6,2.6|
5,7,5.5|
6,0,7.4|
6,1,1.5|
6,2,1.3|
6,3,0.15|
6,4,2.9|
6,5,8.4|
6,6,3.8|
6,7,1|
7,0,3.4|
7,1,7.9|
7,2,1.5|
7,3,5.2|
7,4,8.8|
7,5,2.6|
7,6,5.6|
7,7,6.8|
];
constraint_x14_x10=[
0,0,9.1|
0,1,6.2|
0,2,4.4|
0,3,3.3|
0,4,1.9|
0,5,6.4|
0,6,3|
0,7,8.3|
1,0,0.81|
1,1,6|
1,2,9|
1,3,7.5|
1,4,0.88|
1,5,10|
1,6,8.9|
1,7,7.3|
2,0,8.2|
2,1,8.8|
2,2,6.8|
2,3,5.1|
2,4,3.6|
2,5,10|
2,6,0.055|
2,7,6.2|
3,0,8.2|
3,1,9.1|
3,2,7.9|
3,3,3.5|
3,4,0.72|
3,5,3.3|
3,6,7.5|
3,7,6.9|
4,0,4.3|
4,1,1.5|
4,2,4|
4,3,0.58|
4,4,1.8|
4,5,1.2|
4,6,6.7|
4,7,1.8|
5,0,1.9|
5,1,1.3|
5,2,1.4|
5,3,5.8|
5,4,4.8|
5,5,4|
5,6,3.4|
5,7,5.3|
6,0,2.4|
6,1,0.96|
6,2,8.6|
6,3,9.3|
6,4,9.8|
6,5,9.3|
6,6,3.8|
6,7,9.3|
7,0,7.8|
7,1,2.4|
7,2,1.6|
7,3,0.85|
7,4,2.1|
7,5,1.6|
7,6,4.4|
7,7,2.6|
];
constraint_x1_y1=[
0,0,6.8|
0,1,6.8|
0,2,7.3|
0,3,4.4|
0,4,3.4|
0,5,1.3|
0,6,8|
0,7,3.3|
1,0,8.1|
1,1,3.4|
1,2,4.3|
1,3,8.8|
1,4,3.3|
1,5,2.8|
1,6,8.6|
1,7,6.2|
2,0,3.5|
2,1,0.79|
2,2,4.5|
2,3,5.4|
2,4,7.4|
2,5,5.2|
2,6,3.4|
2,7,9.4|
3,0,6.1|
3,1,7.8|
3,2,9.2|
3,3,5.4|
3,4,8.7|
3,5,3.5|
3,6,1.6|
3,7,2.4|
4,0,9.6|
4,1,8|
4,2,6.9|
4,3,0.034|
4,4,0.99|
4,5,9.2|
4,6,7.5|
4,7,2.4|
5,0,2.3|
5,1,4.4|
5,2,1|
5,3,9.3|
5,4,8.4|
5,5,4.9|
5,6,2.5|
5,7,5.6|
6,0,8.1|
6,1,8.1|
6,2,8.6|
6,3,8.8|
6,4,0.81|
6,5,9.3|
6,6,5.7|
6,7,3.7|
7,0,0.14|
7,1,1.6|
7,2,8.5|
7,3,0.68|
7,4,1.4|
7,5,6|
7,6,5.6|
7,7,1.7|
];
constraint_x2_y2=[
0,0,9.5|
0,1,7.2|
0,2,3.3|
0,3,6.5|
0,4,3.9|
0,5,7.3|
0,6,9.5|
0,7,9|
1,0,7.1|
1,1,2.9|
1,2,1.2|
1,3,9.6|
1,4,8.2|
1,5,2.4|
1,6,8.3|
1,7,1.9|
2,0,2.1|
2,1,4|
2,2,5.7|
2,3,5.2|
2,4,9.1|
2,5,4.2|
2,6,1.3|
2,7,1.5|
3,0,9.5|
3,1,2.4|
3,2,7|
3,3,5.8|
3,4,6.9|
3,5,0.62|
3,6,8.9|
3,7,5.8|
4,0,3.1|
4,1,4.7|
4,2,7.1|
4,3,6|
4,4,6.5|
4,5,3|
4,6,1.1|
4,7,6.3|
5,0,6.7|
5,1,0.43|
5,2,5.2|
5,3,5.5|
5,4,3.9|
5,5,0.98|
5,6,5.3|
5,7,4.4|
6,0,0.93|
6,1,6.6|
6,2,6.8|
6,3,5.2|
6,4,1.3|
6,5,8|
6,6,0.93|
6,7,1.9|
7,0,6.3|
7,1,8.6|
7,2,0.11|
7,3,7|
7,4,8.4|
7,5,0.33|
7,6,8.8|
7,7,7|
];
constraint_x3_y3=[
0,0,8.8|
0,1,3|
0,2,4.1|
0,3,4.7|
0,4,9.9|
0,5,10|
0,6,10|
0,7,7.4|
1,0,9.6|
1,1,9.4|
1,2,5.8|
1,3,1.3|
1,4,3.6|
1,5,4.6|
1,6,3.9|
1,7,2.9|
2,0,6.6|
2,1,2.1|
2,2,8.9|
2,3,3.8|
2,4,8.3|
2,5,2.9|
2,6,6.3|
2,7,2.6|
3,0,6.6|
3,1,9.8|
3,2,7.1|
3,3,4.9|
3,4,4.2|
3,5,5.8|
3,6,3.1|
3,7,1|
4,0,9.7|
4,1,7.1|
4,2,1.3|
4,3,9.5|
4,4,2.2|
4,5,1.8|
4,6,6.5|
4,7,0.12|
5,0,6.9|
5,1,3.1|
5,2,3.5|
5,3,1|
5,4,0.44|
5,5,3.9|
5,6,9.4|
5,7,2.1|
6,0,5.5|
6,1,0.26|
6,2,0.27|
6,3,9|
6,4,6.7|
6,5,0.8|
6,6,0.86|
6,7,1.6|
7,0,3.9|
7,1,0.23|
7,2,5.7|
7,3,0.53|
7,4,2.3|
7,5,6.8|
7,6,8.6|
7,7,0.88|
];
constraint_x4_y4=[
0,0,9|
0,1,6.4|
0,2,7.3|
0,3,7|
0,4,7.8|
0,5,4.4|
0,6,2|
0,7,7.7|
1,0,9.7|
1,1,7|
1,2,7.2|
1,3,8|
1,4,6.5|
1,5,8.6|
1,6,8.9|
1,7,9|
2,0,2.3|
2,1,8.7|
2,2,1.8|
2,3,2.6|
2,4,5.5|
2,5,9.8|
2,6,1.1|
2,7,4.9|
3,0,2.4|
3,1,9.6|
3,2,4.7|
3,3,8.2|
3,4,1|
3,5,1.3|
3,6,2.1|
3,7,7.8|
4,0,0.012|
4,1,6.6|
4,2,7.1|
4,3,7.3|
4,4,0.74|
4,5,2.6|
4,6,6|
4,7,9.9|
5,0,4.7|
5,1,7.6|
5,2,7.1|
5,3,6.2|
5,4,10|
5,5,6.2|
5,6,2.9|
5,7,9.5|
6,0,3.9|
6,1,3|
6,2,2|
6,3,7.2|
6,4,9.9|
6,5,1.9|
6,6,8.9|
6,7,4.9|
7,0,3|
7,1,7.9|
7,2,4.9|
7,3,1.2|
7,4,6.8|
7,5,8.4|
7,6,0.91|
7,7,0.56|
];
constraint_x5_y5=[
0,0,2.4|
0,1,4.6|
0,2,1.1|
0,3,0.49|
0,4,8.8|
0,5,0.7|
0,6,7.3|
0,7,7.9|
1,0,2|
1,1,0.82|
1,2,9.7|
1,3,9.8|
1,4,0.93|
1,5,4.3|
1,6,0.52|
1,7,5.8|
2,0,5.7|
2,1,4.2|
2,2,4.6|
2,3,4.5|
2,4,5.8|
2,5,5.7|
2,6,4.2|
2,7,6.2|
3,0,9.9|
3,1,9.3|
3,2,0.44|
3,3,4.2|
3,4,6.8|
3,5,0.71|
3,6,3.5|
3,7,4.2|
4,0,9|
4,1,2.1|
4,2,6.4|
4,3,5.5|
4,4,9.5|
4,5,8.6|
4,6,0.22|
4,7,6.4|
5,0,8.4|
5,1,4.2|
5,2,0.9|
5,3,8.2|
5,4,8.7|
5,5,9.7|
5,6,7.9|
5,7,2.1|
6,0,8.1|
6,1,9|
6,2,1.2|
6,3,9.7|
6,4,0.96|
6,5,8.7|
6,6,8.2|
6,7,9.3|
7,0,3|
7,1,3.7|
7,2,4.8|
7,3,0.95|
7,4,7.4|
7,5,3|
7,6,7.3|
7,7,1.3|
];
constraint_x6_y6=[
0,0,5|
0,1,9.3|
0,2,1.3|
0,3,8.3|
0,4,0.83|
0,5,8.6|
0,6,6.6|
0,7,1.4|
1,0,8.9|
1,1,2.6|
1,2,2.5|
1,3,6.6|
1,4,8.7|
1,5,8.9|
1,6,9.3|
1,7,6.3|
2,0,7|
2,1,8.3|
2,2,3.4|
2,3,5.6|
2,4,3.6|
2,5,5.8|
2,6,5.7|
2,7,3.8|
3,0,9|
3,1,7.3|
3,2,7.2|
3,3,7.3|
3,4,8.6|
3,5,0.9|
3,6,9|
3,7,8.8|
4,0,3.3|
4,1,5.5|
4,2,3.9|
4,3,8.2|
4,4,7.5|
4,5,8.5|
4,6,8.6|
4,7,1.8|
5,0,4.9|
5,1,0.68|
5,2,7.4|
5,3,7.3|
5,4,9.8|
5,5,0.38|
5,6,7.1|
5,7,4.1|
6,0,1.6|
6,1,5.7|
6,2,4.4|
6,3,2.4|
6,4,8.1|
6,5,7.7|
6,6,0.92|
6,7,1.4|
7,0,1.9|
7,1,5.5|
7,2,3.7|
7,3,2.8|
7,4,7.4|
7,5,5.4|
7,6,1.1|
7,7,8.6|
];
initial_distribution_y1=[0.23,0.2,0.041,0.2,0.068,0.032,0.085,0.15];
initial_distribution_y2=[0.18,0.12,0.13,0.18,0.011,0.22,0.014,0.14];
initial_distribution_y3=[0.079,0.23,0.22,0.0044,0.1,0.085,0.052,0.23];
initial_distribution_y4=[0.064,0.28,0.024,0.25,0.013,0.1,0.12,0.14];
initial_distribution_y5=[0.19,0.038,0.19,0.12,0.22,0.068,0.11,0.068];
initial_distribution_y6=[0.086,0.21,0.033,0.21,0.14,0.01,0.17,0.15];
transition_y1=[
0.19,0.13,0.3,0.23,0.03,0.0069,0.045,0.074|
0.01,0.09,0.11,0.26,0.26,0.043,0.039,0.19|
0.15,0.14,0.15,0.07,0.069,0.11,0.18,0.13|
0.19,0.2,0.0033,0.14,0.11,0.11,0.19,0.047|
0.18,0.22,0.15,0.23,0.083,0.076,0.021,0.038|
0.17,0.071,0.014,0.15,0.17,0.057,0.2,0.18|
0.15,0.073,0.15,0.15,0.036,0.09,0.17,0.17|
0.14,0.17,0.18,0.19,0.085,0.055,0.17,0.0056|
];
transition_y2=[
0.065,0.096,0.28,0.3,0.053,0.11,0.086,0.0078|
0.18,0.16,0.15,0.079,0.11,0.12,0.12,0.069|
0.12,0.09,0.071,0.21,0.024,0.21,0.2,0.071|
0.0077,0.077,0.32,0.0093,0.29,0.047,0.043,0.2|
0.13,0.077,0.099,0.19,0.075,0.2,0.023,0.2|
0.0032,0.18,0.022,0.19,0.17,0.18,0.19,0.061|
0.24,0.052,0.19,0.24,0.016,0.052,0.077,0.13|
0.11,0.066,0.078,0.15,0.13,0.21,0.16,0.1|
];
transition_y3=[
0.046,0.046,0.18,0.038,0.1,0.13,0.27,0.19|
0.018,0.14,0.061,0.052,0.25,0.22,0.18,0.086|
0.053,0.026,0.24,0.11,0.15,0.24,0.18,0.0099|
0.27,0.1,0.063,0.25,0.13,0.096,0.023,0.07|
0.17,0.12,0.043,0.16,0.13,0.16,0.075,0.14|
0.16,0.14,0.072,0.12,0.21,0.061,0.12,0.12|
0.13,0.039,0.066,0.25,0.22,0.095,0.19,0.012|
0.19,0.093,0.21,0.052,0.13,0.14,0.11,0.073|
];
transition_y4=[
0.005,0.25,0.073,0.062,0.14,0.19,0.23,0.051|
0.046,0.19,0.13,0.13,0.16,0.19,0.084,0.067|
0.071,0.14,0.16,0.086,0.066,0.22,0.098,0.15|
0.12,0.12,0.078,0.085,0.13,0.17,0.12,0.17|
0.055,0.12,0.14,0.16,0.11,0.17,0.15,0.086|
0.023,0.24,0.2,0.11,0.053,0.14,0.087,0.15|
0.1,0.17,0.11,0.052,0.17,0.18,0.11,0.1|
0.083,0.12,0.13,0.15,0.19,0.17,0.074,0.084|
];
transition_y5=[
0.12,0.14,0.097,0.1,0.1,0.14,0.091,0.21|
0.022,0.18,0.023,0.043,0.099,0.25,0.31,0.073|
0.16,0.2,0.085,0.032,0.071,0.16,0.17,0.13|
0.13,0.063,0.14,0.14,0.16,0.14,0.17,0.061|
0.13,0.13,0.12,0.17,0.089,0.086,0.17,0.1|
0.16,0.16,0.12,0.024,0.19,0.016,0.12,0.21|
0.2,0.13,0.076,0.087,0.18,0.037,0.095,0.2|
0.098,0.17,0.19,0.092,0.0041,0.19,0.2,0.055|
];
transition_y6=[
0.24,0.15,0.16,0.083,0.11,0.034,0.055,0.17|
0.005,0.13,0.2,0.075,0.12,0.015,0.29,0.17|
0.07,0.09,0.068,0.061,0.027,0.27,0.33,0.074|
0.16,0.21,0.098,0.17,0.14,0.15,0.043,0.029|
0.054,0.017,0.092,0.17,0.25,0.25,0.14,0.021|
0.13,0.052,0.12,0.23,0.19,0.1,0.11,0.063|
0.2,0.09,0.14,0.072,0.091,0.11,0.18,0.12|
0.19,0.085,0.16,0.046,0.21,0.05,0.19,0.066|
];
